
Welcome to IBM(R) ILOG(R) CPLEX(R) Interactive Optimizer 22.1.1.0
  with Simplex, Mixed Integer & Barrier Optimizers
5725-A06 5725-A29 5724-Y48 5724-Y49 5724-Y54 5724-Y55 5655-Y21
Copyright IBM Corp. 1988, 2022.  All Rights Reserved.

Type 'help' for a list of available commands.
Type 'help' followed by a command name for more
information on commands.

CPLEX> Selected objective sense:  MINIMIZE
Selected objective  name:  00000000
Selected RHS        name:  RHS1
Selected bound      name:  BOUND
Problem 'ee.mps' read.
Read time = 0.03 sec. (3.14 ticks)
CPLEX> New value for time limit in seconds: 7200
CPLEX> New value for parallel optimization mode: -1
CPLEX> New value for default parallel thread count: 40
CPLEX> New value for mixed integer optimality gap tolerance: 1e-13
CPLEX> Version identifier: 22.1.1.0 | 2022-11-28 | 9160aff4d
CPXPARAM_Threads                                 40
CPXPARAM_Parallel                                -1
CPXPARAM_TimeLimit                               7200
CPXPARAM_MIP_Tolerances_MIPGap                   1e-13
Found incumbent of value 0.000000 after 0.00 sec. (0.31 ticks)
Tried aggregator 2 times.
MIP Presolve eliminated 518 rows and 3608 columns.
MIP Presolve modified 5664 coefficients.
Aggregator did 785 substitutions.
Reduced MIP has 3215 rows, 6810 columns, and 25107 nonzeros.
Reduced MIP has 6810 binaries, 0 generals, 0 SOSs, and 0 indicators.
Presolve time = 0.07 sec. (67.20 ticks)
Probing time = 0.03 sec. (5.11 ticks)
Tried aggregator 1 time.
Detecting symmetries...
Reduced MIP has 3215 rows, 6810 columns, and 25107 nonzeros.
Reduced MIP has 6810 binaries, 0 generals, 0 SOSs, and 0 indicators.
Presolve time = 0.02 sec. (19.08 ticks)
Probing time = 0.02 sec. (4.93 ticks)
Clique table members: 16290.
MIP emphasis: balance optimality and feasibility.
MIP search method: dynamic search.
Parallel mode: opportunistic, using up to 40 threads.
Root relaxation solution time = 0.10 sec. (81.60 ticks)

        Nodes                                         Cuts/
   Node  Left     Objective  IInf  Best Integer    Best Bound    ItCnt     Gap

*     0+    0                            0.0000  -1.31000e+13              --- 
*     0+    0                      -4.39000e+12  -1.31000e+13           198.41%
*     0+    0                      -5.50000e+12  -1.31000e+13           138.18%
*     0+    0                      -6.60000e+12  -1.31000e+13            98.48%
      0     0  -1.30900e+13    42  -6.60000e+12  -1.30900e+13     1958   98.33%
*     0+    0                      -1.30900e+13  -1.30900e+13             0.00%
      0     0  -1.30900e+13    81  -1.30900e+13      Cuts: 65     2128    0.00%
*     0+    0                      -1.30900e+13  -1.30900e+13             0.00%
      0     0  -1.30900e+13   173  -1.30900e+13      Cuts: 56     2553    0.00%
*     0+    0                      -1.30900e+13  -1.30900e+13             0.00%
*     0+    0                      -1.30900e+13  -1.30900e+13             0.00%

Repeating presolve.
Tried aggregator 2 times.
MIP Presolve eliminated 1700 rows and 3650 columns.
MIP Presolve added 6 rows and 0 columns.
MIP Presolve modified 65 coefficients.
Aggregator did 548 substitutions.
Reduced MIP has 973 rows, 2552 columns, and 8732 nonzeros.
Reduced MIP has 2552 binaries, 0 generals, 0 SOSs, and 0 indicators.
Presolve time = 0.04 sec. (44.29 ticks)
Probing time = 0.02 sec. (17.53 ticks)
Tried aggregator 1 time.
Detecting symmetries...
MIP Presolve eliminated 13 rows and 8 columns.
Reduced MIP has 960 rows, 2543 columns, and 8699 nonzeros.
Reduced MIP has 2543 binaries, 0 generals, 0 SOSs, and 0 indicators.
Presolve time = 0.01 sec. (13.81 ticks)
Represolve time = 0.08 sec. (89.01 ticks)
Probing time = 0.00 sec. (2.86 ticks)
Clique table members: 6054.
MIP emphasis: balance optimality and feasibility.
MIP search method: dynamic search.
Parallel mode: opportunistic, using up to 40 threads.
Root relaxation solution time = 0.05 sec. (25.92 ticks)

        Nodes                                         Cuts/
   Node  Left     Objective  IInf  Best Integer    Best Bound    ItCnt     Gap

*     0+    0                      -1.30900e+13  -1.30900e+13             0.00%
      0     0  -1.30900e+13    86  -1.30900e+13  -1.30900e+13     3391    0.00%
      0     0  -1.30900e+13   108  -1.30900e+13     Cuts: 100     3676    0.00%
*     0+    0                      -1.30900e+13  -1.30900e+13             0.00%
      0     0  -1.30900e+13    27  -1.30900e+13      Cuts: 60     3817    0.00%

Repeating presolve.
Tried aggregator 2 times.
MIP Presolve eliminated 59 rows and 729 columns.
MIP Presolve modified 8 coefficients.
Aggregator did 5 substitutions.
Reduced MIP has 896 rows, 1806 columns, and 6319 nonzeros.
Reduced MIP has 1806 binaries, 0 generals, 0 SOSs, and 0 indicators.
Presolve time = 0.02 sec. (6.40 ticks)
Probing fixed 20 vars, tightened 0 bounds.
Probing time = 0.02 sec. (22.34 ticks)
Tried aggregator 2 times.
MIP Presolve eliminated 6 rows and 32 columns.
MIP Presolve modified 6 coefficients.
Aggregator did 4 substitutions.
Reduced MIP has 886 rows, 1770 columns, and 6199 nonzeros.
Reduced MIP has 1770 binaries, 0 generals, 0 SOSs, and 0 indicators.
Presolve time = 0.01 sec. (8.64 ticks)
Probing time = 0.01 sec. (5.81 ticks)
Tried aggregator 2 times.
Detecting symmetries...
MIP Presolve eliminated 1 rows and 1 columns.
Aggregator did 1 substitutions.
Reduced MIP has 884 rows, 1768 columns, and 6191 nonzeros.
Reduced MIP has 1768 binaries, 0 generals, 0 SOSs, and 0 indicators.
Presolve time = 0.01 sec. (12.90 ticks)
Represolve time = 0.09 sec. (72.36 ticks)
Probing time = 0.01 sec. (8.12 ticks)
Clique table members: 4252.
MIP emphasis: balance optimality and feasibility.
MIP search method: dynamic search.
Parallel mode: opportunistic, using up to 40 threads.
Root relaxation solution time = 0.02 sec. (20.16 ticks)

        Nodes                                         Cuts/
   Node  Left     Objective  IInf  Best Integer    Best Bound    ItCnt     Gap

*     0+    0                      -1.30900e+13  -1.30900e+13             0.00%
      0     0  -1.30900e+13    27  -1.30900e+13  -1.30900e+13     4878    0.00%
      0     0  -1.30900e+13    79  -1.30900e+13      Cuts: 18     5007    0.00%
      0     0  -1.30900e+13    98  -1.30900e+13      Cuts: 50     5184    0.00%
      0     2  -1.30900e+13    98  -1.30900e+13  -1.30900e+13     5184    0.00%
Elapsed time = 1.86 sec. (1233.24 ticks, tree = 0.02 MB, solutions = 10)

Clique cuts applied:  43
Cover cuts applied:  93
Flow cuts applied:  2
Mixed integer rounding cuts applied:  16
Zero-half cuts applied:  11
Lift and project cuts applied:  7
Gomory fractional cuts applied:  9

Root node processing (before b&c):
  Real time             =    1.61 sec. (1233.29 ticks)
Parallel b&c, 40 threads:
  Real time             =    0.60 sec. (46.38 ticks)
  Sync time (average)   =    0.40 sec.
  Wait time (average)   =    0.00 sec.
                          ------------
Total (root+branch&cut) =    2.21 sec. (1279.67 ticks)

Solution pool: 10 solutions saved.

MIP - Integer optimal solution:  Objective = -1.3089999990e+13
Solution time =    2.24 sec.  Iterations = 9475  Nodes = 107
Deterministic time = 1279.70 ticks  (570.90 ticks/sec)

CPLEX> Solution 'p11' written to file 'ee.sol'.
CPLEX> 